10
2 0 30
2 1 21
3 1 21
3 2 19
4 0 14
5 0 39
5 2 21
6 1 31
6 2 32
6 3 31
6 4 10
6 5 10
7 0 20
7 1 37
7 2 1
7 3 2
7 5 4
7 6 20
8 0 39
8 1 15
8 2 21
8 3 26
8 4 7
8 6 40
8 7 21
9 0 5
9 1 33
9 2 36
9 4 16
9 5 15
9 6 23
9 7 21
9 8 22
